
Gurobi 10.0.1 (linux64) logging started Sun Nov 26 15:59:46 2023

Set parameter LogFile to value "ArtificialInstance/ExperimentV2/S4T5K1/AdRo/gurobi91.txt"
Gurobi Optimizer version 10.0.1 build v10.0.1rc0 (linux64)

CPU model: AMD EPYC 7H12 64-Core Processor, instruction set [SSE2|AVX|AVX2]
Thread count: 128 physical cores, 128 logical processors, using up to 32 threads

Academic license 656792 - for non-commercial use only - registered to b.___@student.vu.nl
Optimize a model with 5579 rows, 5206 columns and 20459 nonzeros
Model fingerprint: 0xfd669b4e
Variable types: 1 continuous, 5205 integer (5205 binary)
Coefficient statistics:
  Matrix range     [1e+00, 4e+01]
  Objective range  [1e+00, 2e+01]
  Bounds range     [1e+00, 1e+00]
  RHS range        [1e+00, 1e+00]
Presolve removed 587 rows and 547 columns
Presolve time: 0.07s
Presolved: 4992 rows, 4659 columns, 18794 nonzeros
Variable types: 1 continuous, 4658 integer (4658 binary)
Found heuristic solution: objective 218.2107626

Root relaxation: objective 5.486556e+01, 3854 iterations, 0.23 seconds (0.18 work units)

    Nodes    |    Current Node    |     Objective Bounds      |     Work
 Expl Unexpl |  Obj  Depth IntInf | Incumbent    BestBd   Gap | It/Node Time

     0     0   54.86556    0  405  218.21076   54.86556  74.9%     -    0s
H    0     0                     212.1871594   54.86556  74.1%     -    0s
H    0     0                      71.3669536   54.86556  23.1%     -    0s
H    0     0                      63.3424357   56.80410  10.3%     -    0s
     0     0   56.80410    0  548   63.34244   56.80410  10.3%     -    0s
     0     0   58.29150    0  607   63.34244   58.29150  7.97%     -    0s
H    0     0                      61.0328790   58.52519  4.11%     -    0s
     0     0   58.52519    0  597   61.03288   58.52519  4.11%     -    0s
     0     0   58.55489    0  595   61.03288   58.55489  4.06%     -    0s
     0     0   58.59593    0  598   61.03288   58.59593  3.99%     -    1s
     0     0   58.59593    0  394   61.03288   58.59593  3.99%     -    1s
     0     0   58.59593    0  624   61.03288   58.59593  3.99%     -    1s
H    0     0                      58.7849959   58.59593  0.32%     -    1s
     0     0   58.59593    0  600   58.78500   58.59593  0.32%     -    1s
     0     0   58.59593    0  592   58.78500   58.59593  0.32%     -    1s
     0     0   58.59593    0  516   58.78500   58.59593  0.32%     -    1s
     0     0   58.59593    0  526   58.78500   58.59593  0.32%     -    1s
     0     0   58.59593    0  555   58.78500   58.59593  0.32%     -    1s
     0     0   58.59593    0  574   58.78500   58.59593  0.32%     -    1s
     0     0   58.59593    0  553   58.78500   58.59593  0.32%     -    1s
     0     0   58.59593    0  553   58.78500   58.59593  0.32%     -    1s
     0     0   58.78500    0  536   58.78500   58.78500  0.00%     -    1s

Cutting planes:
  Gomory: 5
  MIR: 1
  Zero half: 16
  RLT: 3

Explored 1 nodes (13133 simplex iterations) in 1.64 seconds (1.04 work units)
Thread count was 32 (of 128 available processors)

Solution count 6: 58.785 61.0329 63.3424 ... 218.211

Optimal solution found (tolerance 1.00e-04)
Best objective 5.878499587496e+01, best bound 5.878499587496e+01, gap 0.0000%
